nbGenes = 10;
preference = [[0 59 57 11 62 54 67 20 62 88 ]
[41 0 64 74 7 39 96 76 38 25 ]
[43 36 0 61 73 85 57 75 43 22 ]
[89 26 39 0 95 3 81 46 60 68 ]
[38 93 27 5 0 83 98 86 71 83 ]
[46 61 15 97 17 0 48 99 61 84 ]
[33 4 43 19 2 52 0 73 17 67 ]
[80 24 25 54 14 1 27 0 42 70 ]
[38 62 57 40 29 39 83 58 0 68 ]
[12 75 78 32 17 16 33 30 32 0 ]
];
